p cnf 12 34
-1 4 0
-5 -1 4 0
-5 1 -4 0
5 1 4 0
5 -1 -4 0
-5 -2 3 0
-6 5 0
-6 -2 3 0
-6 2 -3 0
6 -5 -2 -3 0
6 -5 2 3 0
-6 -3 2 0
-7 6 0
-7 -3 2 0
-7 3 -2 0
7 -6 -3 -2 0
7 -6 3 2 0
-7 -4 1 0
-8 7 0
-8 -4 1 0
-8 4 -1 0
8 -7 -4 -1 0
8 -7 4 1 0
3 4 0
2 4 0
-9 1 0
-10 2 0
-11 3 0
-12 4 0
9 10 11 12 0
-1 0
-2 0
-3 0
-4 0
